set MODEL := eco nor lus;
set ROBOT := A B C;

param: Profitto LimiteMin LimiteMax PercMin PercMax :=
eco  500 300 1000 0.4   1
nor  750 200  800   0   1
lus 1100   0  700   0 0.2;

param Consumo: eco nor lus :=
A 40 60 120
B 60 80 100
C 35 81 60;

param: Dispon :=
A 800
B 800
C 500;
